(set-logic QF_LRA)
(declare-fun T1 () Real )
(declare-fun T2 () Real )
(declare-fun T3 () Real )
(declare-fun T4 () Real )
(declare-fun T5 () Real )
(declare-fun T6 () Real )
(declare-fun T7 () Real )
(declare-fun T8 () Real )
(declare-fun T9 () Real )
(declare-fun T10 () Real )
(declare-fun Z () Real )
(assert ( and 
(or ( <= ( + T1 49 ) T2 ) ( <= ( + T2 5 ) T1 ) )
(or ( <= ( + T1 50 )  ( + T2 5 ) ) ( <= ( + T2 94 )( + T1 49 ) ) )
(or ( <= ( + T1 119 )  ( + T2 94 ) ) ( <= ( + T2 111 )( + T1 50 ) ) )
(or ( <= ( + T1 139 )  ( + T2 111 ) ) ( <= ( + T2 151 )( + T1 119 ) ) )
(or ( <= ( + T1 214 )  ( + T2 151 ) ) ( <= ( + T2 182 )( + T1 139 ) ) )
(or ( <= ( + T1 226 )  ( + T2 182 ) ) ( <= ( + T2 255 )( + T1 214 ) ) )
(or ( <= ( + T1 238 )  ( + T2 255 ) ) ( <= ( + T2 318 )( + T1 226 ) ) )
(or ( <= ( + T1 325 )  ( + T2 318 ) ) ( <= ( + T2 347 )( + T1 238 ) ) )
(or ( <= ( + T1 49 ) T3 ) ( <= ( + T3 6 ) T1 ) )
(or ( <= ( + T1 50 )  ( + T3 6 ) ) ( <= ( + T3 63 )( + T1 49 ) ) )
(or ( <= ( + T1 119 )  ( + T3 63 ) ) ( <= ( + T3 124 )( + T1 50 ) ) )
(or ( <= ( + T1 139 )  ( + T3 124 ) ) ( <= ( + T3 125 )( + T1 119 ) ) )
(or ( <= ( + T1 214 )  ( + T3 125 ) ) ( <= ( + T3 185 )( + T1 139 ) ) )
(or ( <= ( + T1 226 )  ( + T3 185 ) ) ( <= ( + T3 191 )( + T1 214 ) ) )
(or ( <= ( + T1 238 )  ( + T3 191 ) ) ( <= ( + T3 276 )( + T1 226 ) ) )
(or ( <= ( + T1 325 )  ( + T3 276 ) ) ( <= ( + T3 357 )( + T1 238 ) ) )
(or ( <= ( + T1 49 ) T4 ) ( <= ( + T4 73 ) T1 ) )
(or ( <= ( + T1 50 )  ( + T4 73 ) ) ( <= ( + T4 110 )( + T1 49 ) ) )
(or ( <= ( + T1 119 )  ( + T4 110 ) ) ( <= ( + T4 133 )( + T1 50 ) ) )
(or ( <= ( + T1 139 )  ( + T4 133 ) ) ( <= ( + T4 176 )( + T1 119 ) ) )
(or ( <= ( + T1 214 )  ( + T4 176 ) ) ( <= ( + T4 202 )( + T1 139 ) ) )
(or ( <= ( + T1 226 )  ( + T4 202 ) ) ( <= ( + T4 209 )( + T1 214 ) ) )
(or ( <= ( + T1 238 )  ( + T4 209 ) ) ( <= ( + T4 246 )( + T1 226 ) ) )
(or ( <= ( + T1 325 )  ( + T4 246 ) ) ( <= ( + T4 321 )( + T1 238 ) ) )
(or ( <= ( + T1 49 ) T5 ) ( <= ( + T5 59 ) T1 ) )
(or ( <= ( + T1 50 )  ( + T5 59 ) ) ( <= ( + T5 64 )( + T1 49 ) ) )
(or ( <= ( + T1 119 )  ( + T5 64 ) ) ( <= ( + T5 110 )( + T1 50 ) ) )
(or ( <= ( + T1 139 )  ( + T5 110 ) ) ( <= ( + T5 196 )( + T1 119 ) ) )
(or ( <= ( + T1 214 )  ( + T5 196 ) ) ( <= ( + T5 264 )( + T1 139 ) ) )
(or ( <= ( + T1 226 )  ( + T5 264 ) ) ( <= ( + T5 273 )( + T1 214 ) ) )
(or ( <= ( + T1 238 )  ( + T5 273 ) ) ( <= ( + T5 345 )( + T1 226 ) ) )
(or ( <= ( + T1 325 )  ( + T5 345 ) ) ( <= ( + T5 417 )( + T1 238 ) ) )
(or ( <= ( + T1 49 ) T6 ) ( <= ( + T6 97 ) T1 ) )
(or ( <= ( + T1 50 )  ( + T6 97 ) ) ( <= ( + T6 137 )( + T1 49 ) ) )
(or ( <= ( + T1 119 )  ( + T6 137 ) ) ( <= ( + T6 201 )( + T1 50 ) ) )
(or ( <= ( + T1 139 )  ( + T6 201 ) ) ( <= ( + T6 280 )( + T1 119 ) ) )
(or ( <= ( + T1 214 )  ( + T6 280 ) ) ( <= ( + T6 345 )( + T1 139 ) ) )
(or ( <= ( + T1 226 )  ( + T6 345 ) ) ( <= ( + T6 371 )( + T1 214 ) ) )
(or ( <= ( + T1 238 )  ( + T6 371 ) ) ( <= ( + T6 430 )( + T1 226 ) ) )
(or ( <= ( + T1 325 )  ( + T6 430 ) ) ( <= ( + T6 500 )( + T1 238 ) ) )
(or ( <= ( + T1 49 ) T7 ) ( <= ( + T7 83 ) T1 ) )
(or ( <= ( + T1 50 )  ( + T7 83 ) ) ( <= ( + T7 102 )( + T1 49 ) ) )
(or ( <= ( + T1 119 )  ( + T7 102 ) ) ( <= ( + T7 124 )( + T1 50 ) ) )
(or ( <= ( + T1 139 )  ( + T7 124 ) ) ( <= ( + T7 218 )( + T1 119 ) ) )
(or ( <= ( + T1 214 )  ( + T7 218 ) ) ( <= ( + T7 294 )( + T1 139 ) ) )
(or ( <= ( + T1 226 )  ( + T7 294 ) ) ( <= ( + T7 300 )( + T1 214 ) ) )
(or ( <= ( + T1 238 )  ( + T7 300 ) ) ( <= ( + T7 374 )( + T1 226 ) ) )
(or ( <= ( + T1 325 )  ( + T7 374 ) ) ( <= ( + T7 423 )( + T1 238 ) ) )
(or ( <= ( + T1 49 ) T8 ) ( <= ( + T8 94 ) T1 ) )
(or ( <= ( + T1 50 )  ( + T8 94 ) ) ( <= ( + T8 190 )( + T1 49 ) ) )
(or ( <= ( + T1 119 )  ( + T8 190 ) ) ( <= ( + T8 281 )( + T1 50 ) ) )
(or ( <= ( + T1 139 )  ( + T8 281 ) ) ( <= ( + T8 301 )( + T1 119 ) ) )
(or ( <= ( + T1 214 )  ( + T8 301 ) ) ( <= ( + T8 355 )( + T1 139 ) ) )
(or ( <= ( + T1 226 )  ( + T8 355 ) ) ( <= ( + T8 434 )( + T1 214 ) ) )
(or ( <= ( + T1 238 )  ( + T8 434 ) ) ( <= ( + T8 480 )( + T1 226 ) ) )
(or ( <= ( + T1 325 )  ( + T8 480 ) ) ( <= ( + T8 544 )( + T1 238 ) ) )
(or ( <= ( + T1 49 ) T9 ) ( <= ( + T9 35 ) T1 ) )
(or ( <= ( + T1 50 )  ( + T9 35 ) ) ( <= ( + T9 126 )( + T1 49 ) ) )
(or ( <= ( + T1 119 )  ( + T9 126 ) ) ( <= ( + T9 175 )( + T1 50 ) ) )
(or ( <= ( + T1 139 )  ( + T9 175 ) ) ( <= ( + T9 177 )( + T1 119 ) ) )
(or ( <= ( + T1 214 )  ( + T9 177 ) ) ( <= ( + T9 276 )( + T1 139 ) ) )
(or ( <= ( + T1 226 )  ( + T9 276 ) ) ( <= ( + T9 296 )( + T1 214 ) ) )
(or ( <= ( + T1 238 )  ( + T9 296 ) ) ( <= ( + T9 370 )( + T1 226 ) ) )
(or ( <= ( + T1 325 )  ( + T9 370 ) ) ( <= ( + T9 417 )( + T1 238 ) ) )
(or ( <= ( + T1 49 ) T10 ) ( <= ( + T10 60 ) T1 ) )
(or ( <= ( + T1 50 )  ( + T10 60 ) ) ( <= ( + T10 149 )( + T1 49 ) ) )
(or ( <= ( + T1 119 )  ( + T10 149 ) ) ( <= ( + T10 174 )( + T1 50 ) ) )
(or ( <= ( + T1 139 )  ( + T10 174 ) ) ( <= ( + T10 198 )( + T1 119 ) ) )
(or ( <= ( + T1 214 )  ( + T10 198 ) ) ( <= ( + T10 212 )( + T1 139 ) ) )
(or ( <= ( + T1 226 )  ( + T10 212 ) ) ( <= ( + T10 295 )( + T1 214 ) ) )
(or ( <= ( + T1 238 )  ( + T10 295 ) ) ( <= ( + T10 340 )( + T1 226 ) ) )
(or ( <= ( + T1 325 )  ( + T10 340 ) ) ( <= ( + T10 436 )( + T1 238 ) ) )
(or ( <= ( + T2 5 ) T3 ) ( <= ( + T3 6 ) T2 ) )
(or ( <= ( + T2 94 )  ( + T3 6 ) ) ( <= ( + T3 63 )( + T2 5 ) ) )
(or ( <= ( + T2 111 )  ( + T3 63 ) ) ( <= ( + T3 124 )( + T2 94 ) ) )
(or ( <= ( + T2 151 )  ( + T3 124 ) ) ( <= ( + T3 125 )( + T2 111 ) ) )
(or ( <= ( + T2 182 )  ( + T3 125 ) ) ( <= ( + T3 185 )( + T2 151 ) ) )
(or ( <= ( + T2 255 )  ( + T3 185 ) ) ( <= ( + T3 191 )( + T2 182 ) ) )
(or ( <= ( + T2 318 )  ( + T3 191 ) ) ( <= ( + T3 276 )( + T2 255 ) ) )
(or ( <= ( + T2 347 )  ( + T3 276 ) ) ( <= ( + T3 357 )( + T2 318 ) ) )
(or ( <= ( + T2 5 ) T4 ) ( <= ( + T4 73 ) T2 ) )
(or ( <= ( + T2 94 )  ( + T4 73 ) ) ( <= ( + T4 110 )( + T2 5 ) ) )
(or ( <= ( + T2 111 )  ( + T4 110 ) ) ( <= ( + T4 133 )( + T2 94 ) ) )
(or ( <= ( + T2 151 )  ( + T4 133 ) ) ( <= ( + T4 176 )( + T2 111 ) ) )
(or ( <= ( + T2 182 )  ( + T4 176 ) ) ( <= ( + T4 202 )( + T2 151 ) ) )
(or ( <= ( + T2 255 )  ( + T4 202 ) ) ( <= ( + T4 209 )( + T2 182 ) ) )
(or ( <= ( + T2 318 )  ( + T4 209 ) ) ( <= ( + T4 246 )( + T2 255 ) ) )
(or ( <= ( + T2 347 )  ( + T4 246 ) ) ( <= ( + T4 321 )( + T2 318 ) ) )
(or ( <= ( + T2 5 ) T5 ) ( <= ( + T5 59 ) T2 ) )
(or ( <= ( + T2 94 )  ( + T5 59 ) ) ( <= ( + T5 64 )( + T2 5 ) ) )
(or ( <= ( + T2 111 )  ( + T5 64 ) ) ( <= ( + T5 110 )( + T2 94 ) ) )
(or ( <= ( + T2 151 )  ( + T5 110 ) ) ( <= ( + T5 196 )( + T2 111 ) ) )
(or ( <= ( + T2 182 )  ( + T5 196 ) ) ( <= ( + T5 264 )( + T2 151 ) ) )
(or ( <= ( + T2 255 )  ( + T5 264 ) ) ( <= ( + T5 273 )( + T2 182 ) ) )
(or ( <= ( + T2 318 )  ( + T5 273 ) ) ( <= ( + T5 345 )( + T2 255 ) ) )
(or ( <= ( + T2 347 )  ( + T5 345 ) ) ( <= ( + T5 417 )( + T2 318 ) ) )
(or ( <= ( + T2 5 ) T6 ) ( <= ( + T6 97 ) T2 ) )
(or ( <= ( + T2 94 )  ( + T6 97 ) ) ( <= ( + T6 137 )( + T2 5 ) ) )
(or ( <= ( + T2 111 )  ( + T6 137 ) ) ( <= ( + T6 201 )( + T2 94 ) ) )
(or ( <= ( + T2 151 )  ( + T6 201 ) ) ( <= ( + T6 280 )( + T2 111 ) ) )
(or ( <= ( + T2 182 )  ( + T6 280 ) ) ( <= ( + T6 345 )( + T2 151 ) ) )
(or ( <= ( + T2 255 )  ( + T6 345 ) ) ( <= ( + T6 371 )( + T2 182 ) ) )
(or ( <= ( + T2 318 )  ( + T6 371 ) ) ( <= ( + T6 430 )( + T2 255 ) ) )
(or ( <= ( + T2 347 )  ( + T6 430 ) ) ( <= ( + T6 500 )( + T2 318 ) ) )
(or ( <= ( + T2 5 ) T7 ) ( <= ( + T7 83 ) T2 ) )
(or ( <= ( + T2 94 )  ( + T7 83 ) ) ( <= ( + T7 102 )( + T2 5 ) ) )
(or ( <= ( + T2 111 )  ( + T7 102 ) ) ( <= ( + T7 124 )( + T2 94 ) ) )
(or ( <= ( + T2 151 )  ( + T7 124 ) ) ( <= ( + T7 218 )( + T2 111 ) ) )
(or ( <= ( + T2 182 )  ( + T7 218 ) ) ( <= ( + T7 294 )( + T2 151 ) ) )
(or ( <= ( + T2 255 )  ( + T7 294 ) ) ( <= ( + T7 300 )( + T2 182 ) ) )
(or ( <= ( + T2 318 )  ( + T7 300 ) ) ( <= ( + T7 374 )( + T2 255 ) ) )
(or ( <= ( + T2 347 )  ( + T7 374 ) ) ( <= ( + T7 423 )( + T2 318 ) ) )
(or ( <= ( + T2 5 ) T8 ) ( <= ( + T8 94 ) T2 ) )
(or ( <= ( + T2 94 )  ( + T8 94 ) ) ( <= ( + T8 190 )( + T2 5 ) ) )
(or ( <= ( + T2 111 )  ( + T8 190 ) ) ( <= ( + T8 281 )( + T2 94 ) ) )
(or ( <= ( + T2 151 )  ( + T8 281 ) ) ( <= ( + T8 301 )( + T2 111 ) ) )
(or ( <= ( + T2 182 )  ( + T8 301 ) ) ( <= ( + T8 355 )( + T2 151 ) ) )
(or ( <= ( + T2 255 )  ( + T8 355 ) ) ( <= ( + T8 434 )( + T2 182 ) ) )
(or ( <= ( + T2 318 )  ( + T8 434 ) ) ( <= ( + T8 480 )( + T2 255 ) ) )
(or ( <= ( + T2 347 )  ( + T8 480 ) ) ( <= ( + T8 544 )( + T2 318 ) ) )
(or ( <= ( + T2 5 ) T9 ) ( <= ( + T9 35 ) T2 ) )
(or ( <= ( + T2 94 )  ( + T9 35 ) ) ( <= ( + T9 126 )( + T2 5 ) ) )
(or ( <= ( + T2 111 )  ( + T9 126 ) ) ( <= ( + T9 175 )( + T2 94 ) ) )
(or ( <= ( + T2 151 )  ( + T9 175 ) ) ( <= ( + T9 177 )( + T2 111 ) ) )
(or ( <= ( + T2 182 )  ( + T9 177 ) ) ( <= ( + T9 276 )( + T2 151 ) ) )
(or ( <= ( + T2 255 )  ( + T9 276 ) ) ( <= ( + T9 296 )( + T2 182 ) ) )
(or ( <= ( + T2 318 )  ( + T9 296 ) ) ( <= ( + T9 370 )( + T2 255 ) ) )
(or ( <= ( + T2 347 )  ( + T9 370 ) ) ( <= ( + T9 417 )( + T2 318 ) ) )
(or ( <= ( + T2 5 ) T10 ) ( <= ( + T10 60 ) T2 ) )
(or ( <= ( + T2 94 )  ( + T10 60 ) ) ( <= ( + T10 149 )( + T2 5 ) ) )
(or ( <= ( + T2 111 )  ( + T10 149 ) ) ( <= ( + T10 174 )( + T2 94 ) ) )
(or ( <= ( + T2 151 )  ( + T10 174 ) ) ( <= ( + T10 198 )( + T2 111 ) ) )
(or ( <= ( + T2 182 )  ( + T10 198 ) ) ( <= ( + T10 212 )( + T2 151 ) ) )
(or ( <= ( + T2 255 )  ( + T10 212 ) ) ( <= ( + T10 295 )( + T2 182 ) ) )
(or ( <= ( + T2 318 )  ( + T10 295 ) ) ( <= ( + T10 340 )( + T2 255 ) ) )
(or ( <= ( + T2 347 )  ( + T10 340 ) ) ( <= ( + T10 436 )( + T2 318 ) ) )
(or ( <= ( + T3 6 ) T4 ) ( <= ( + T4 73 ) T3 ) )
(or ( <= ( + T3 63 )  ( + T4 73 ) ) ( <= ( + T4 110 )( + T3 6 ) ) )
(or ( <= ( + T3 124 )  ( + T4 110 ) ) ( <= ( + T4 133 )( + T3 63 ) ) )
(or ( <= ( + T3 125 )  ( + T4 133 ) ) ( <= ( + T4 176 )( + T3 124 ) ) )
(or ( <= ( + T3 185 )  ( + T4 176 ) ) ( <= ( + T4 202 )( + T3 125 ) ) )
(or ( <= ( + T3 191 )  ( + T4 202 ) ) ( <= ( + T4 209 )( + T3 185 ) ) )
(or ( <= ( + T3 276 )  ( + T4 209 ) ) ( <= ( + T4 246 )( + T3 191 ) ) )
(or ( <= ( + T3 357 )  ( + T4 246 ) ) ( <= ( + T4 321 )( + T3 276 ) ) )
(or ( <= ( + T3 6 ) T5 ) ( <= ( + T5 59 ) T3 ) )
(or ( <= ( + T3 63 )  ( + T5 59 ) ) ( <= ( + T5 64 )( + T3 6 ) ) )
(or ( <= ( + T3 124 )  ( + T5 64 ) ) ( <= ( + T5 110 )( + T3 63 ) ) )
(or ( <= ( + T3 125 )  ( + T5 110 ) ) ( <= ( + T5 196 )( + T3 124 ) ) )
(or ( <= ( + T3 185 )  ( + T5 196 ) ) ( <= ( + T5 264 )( + T3 125 ) ) )
(or ( <= ( + T3 191 )  ( + T5 264 ) ) ( <= ( + T5 273 )( + T3 185 ) ) )
(or ( <= ( + T3 276 )  ( + T5 273 ) ) ( <= ( + T5 345 )( + T3 191 ) ) )
(or ( <= ( + T3 357 )  ( + T5 345 ) ) ( <= ( + T5 417 )( + T3 276 ) ) )
(or ( <= ( + T3 6 ) T6 ) ( <= ( + T6 97 ) T3 ) )
(or ( <= ( + T3 63 )  ( + T6 97 ) ) ( <= ( + T6 137 )( + T3 6 ) ) )
(or ( <= ( + T3 124 )  ( + T6 137 ) ) ( <= ( + T6 201 )( + T3 63 ) ) )
(or ( <= ( + T3 125 )  ( + T6 201 ) ) ( <= ( + T6 280 )( + T3 124 ) ) )
(or ( <= ( + T3 185 )  ( + T6 280 ) ) ( <= ( + T6 345 )( + T3 125 ) ) )
(or ( <= ( + T3 191 )  ( + T6 345 ) ) ( <= ( + T6 371 )( + T3 185 ) ) )
(or ( <= ( + T3 276 )  ( + T6 371 ) ) ( <= ( + T6 430 )( + T3 191 ) ) )
(or ( <= ( + T3 357 )  ( + T6 430 ) ) ( <= ( + T6 500 )( + T3 276 ) ) )
(or ( <= ( + T3 6 ) T7 ) ( <= ( + T7 83 ) T3 ) )
(or ( <= ( + T3 63 )  ( + T7 83 ) ) ( <= ( + T7 102 )( + T3 6 ) ) )
(or ( <= ( + T3 124 )  ( + T7 102 ) ) ( <= ( + T7 124 )( + T3 63 ) ) )
(or ( <= ( + T3 125 )  ( + T7 124 ) ) ( <= ( + T7 218 )( + T3 124 ) ) )
(or ( <= ( + T3 185 )  ( + T7 218 ) ) ( <= ( + T7 294 )( + T3 125 ) ) )
(or ( <= ( + T3 191 )  ( + T7 294 ) ) ( <= ( + T7 300 )( + T3 185 ) ) )
(or ( <= ( + T3 276 )  ( + T7 300 ) ) ( <= ( + T7 374 )( + T3 191 ) ) )
(or ( <= ( + T3 357 )  ( + T7 374 ) ) ( <= ( + T7 423 )( + T3 276 ) ) )
(or ( <= ( + T3 6 ) T8 ) ( <= ( + T8 94 ) T3 ) )
(or ( <= ( + T3 63 )  ( + T8 94 ) ) ( <= ( + T8 190 )( + T3 6 ) ) )
(or ( <= ( + T3 124 )  ( + T8 190 ) ) ( <= ( + T8 281 )( + T3 63 ) ) )
(or ( <= ( + T3 125 )  ( + T8 281 ) ) ( <= ( + T8 301 )( + T3 124 ) ) )
(or ( <= ( + T3 185 )  ( + T8 301 ) ) ( <= ( + T8 355 )( + T3 125 ) ) )
(or ( <= ( + T3 191 )  ( + T8 355 ) ) ( <= ( + T8 434 )( + T3 185 ) ) )
(or ( <= ( + T3 276 )  ( + T8 434 ) ) ( <= ( + T8 480 )( + T3 191 ) ) )
(or ( <= ( + T3 357 )  ( + T8 480 ) ) ( <= ( + T8 544 )( + T3 276 ) ) )
(or ( <= ( + T3 6 ) T9 ) ( <= ( + T9 35 ) T3 ) )
(or ( <= ( + T3 63 )  ( + T9 35 ) ) ( <= ( + T9 126 )( + T3 6 ) ) )
(or ( <= ( + T3 124 )  ( + T9 126 ) ) ( <= ( + T9 175 )( + T3 63 ) ) )
(or ( <= ( + T3 125 )  ( + T9 175 ) ) ( <= ( + T9 177 )( + T3 124 ) ) )
(or ( <= ( + T3 185 )  ( + T9 177 ) ) ( <= ( + T9 276 )( + T3 125 ) ) )
(or ( <= ( + T3 191 )  ( + T9 276 ) ) ( <= ( + T9 296 )( + T3 185 ) ) )
(or ( <= ( + T3 276 )  ( + T9 296 ) ) ( <= ( + T9 370 )( + T3 191 ) ) )
(or ( <= ( + T3 357 )  ( + T9 370 ) ) ( <= ( + T9 417 )( + T3 276 ) ) )
(or ( <= ( + T3 6 ) T10 ) ( <= ( + T10 60 ) T3 ) )
(or ( <= ( + T3 63 )  ( + T10 60 ) ) ( <= ( + T10 149 )( + T3 6 ) ) )
(or ( <= ( + T3 124 )  ( + T10 149 ) ) ( <= ( + T10 174 )( + T3 63 ) ) )
(or ( <= ( + T3 125 )  ( + T10 174 ) ) ( <= ( + T10 198 )( + T3 124 ) ) )
(or ( <= ( + T3 185 )  ( + T10 198 ) ) ( <= ( + T10 212 )( + T3 125 ) ) )
(or ( <= ( + T3 191 )  ( + T10 212 ) ) ( <= ( + T10 295 )( + T3 185 ) ) )
(or ( <= ( + T3 276 )  ( + T10 295 ) ) ( <= ( + T10 340 )( + T3 191 ) ) )
(or ( <= ( + T3 357 )  ( + T10 340 ) ) ( <= ( + T10 436 )( + T3 276 ) ) )
(or ( <= ( + T4 73 ) T5 ) ( <= ( + T5 59 ) T4 ) )
(or ( <= ( + T4 110 )  ( + T5 59 ) ) ( <= ( + T5 64 )( + T4 73 ) ) )
(or ( <= ( + T4 133 )  ( + T5 64 ) ) ( <= ( + T5 110 )( + T4 110 ) ) )
(or ( <= ( + T4 176 )  ( + T5 110 ) ) ( <= ( + T5 196 )( + T4 133 ) ) )
(or ( <= ( + T4 202 )  ( + T5 196 ) ) ( <= ( + T5 264 )( + T4 176 ) ) )
(or ( <= ( + T4 209 )  ( + T5 264 ) ) ( <= ( + T5 273 )( + T4 202 ) ) )
(or ( <= ( + T4 246 )  ( + T5 273 ) ) ( <= ( + T5 345 )( + T4 209 ) ) )
(or ( <= ( + T4 321 )  ( + T5 345 ) ) ( <= ( + T5 417 )( + T4 246 ) ) )
(or ( <= ( + T4 73 ) T6 ) ( <= ( + T6 97 ) T4 ) )
(or ( <= ( + T4 110 )  ( + T6 97 ) ) ( <= ( + T6 137 )( + T4 73 ) ) )
(or ( <= ( + T4 133 )  ( + T6 137 ) ) ( <= ( + T6 201 )( + T4 110 ) ) )
(or ( <= ( + T4 176 )  ( + T6 201 ) ) ( <= ( + T6 280 )( + T4 133 ) ) )
(or ( <= ( + T4 202 )  ( + T6 280 ) ) ( <= ( + T6 345 )( + T4 176 ) ) )
(or ( <= ( + T4 209 )  ( + T6 345 ) ) ( <= ( + T6 371 )( + T4 202 ) ) )
(or ( <= ( + T4 246 )  ( + T6 371 ) ) ( <= ( + T6 430 )( + T4 209 ) ) )
(or ( <= ( + T4 321 )  ( + T6 430 ) ) ( <= ( + T6 500 )( + T4 246 ) ) )
(or ( <= ( + T4 73 ) T7 ) ( <= ( + T7 83 ) T4 ) )
(or ( <= ( + T4 110 )  ( + T7 83 ) ) ( <= ( + T7 102 )( + T4 73 ) ) )
(or ( <= ( + T4 133 )  ( + T7 102 ) ) ( <= ( + T7 124 )( + T4 110 ) ) )
(or ( <= ( + T4 176 )  ( + T7 124 ) ) ( <= ( + T7 218 )( + T4 133 ) ) )
(or ( <= ( + T4 202 )  ( + T7 218 ) ) ( <= ( + T7 294 )( + T4 176 ) ) )
(or ( <= ( + T4 209 )  ( + T7 294 ) ) ( <= ( + T7 300 )( + T4 202 ) ) )
(or ( <= ( + T4 246 )  ( + T7 300 ) ) ( <= ( + T7 374 )( + T4 209 ) ) )
(or ( <= ( + T4 321 )  ( + T7 374 ) ) ( <= ( + T7 423 )( + T4 246 ) ) )
(or ( <= ( + T4 73 ) T8 ) ( <= ( + T8 94 ) T4 ) )
(or ( <= ( + T4 110 )  ( + T8 94 ) ) ( <= ( + T8 190 )( + T4 73 ) ) )
(or ( <= ( + T4 133 )  ( + T8 190 ) ) ( <= ( + T8 281 )( + T4 110 ) ) )
(or ( <= ( + T4 176 )  ( + T8 281 ) ) ( <= ( + T8 301 )( + T4 133 ) ) )
(or ( <= ( + T4 202 )  ( + T8 301 ) ) ( <= ( + T8 355 )( + T4 176 ) ) )
(or ( <= ( + T4 209 )  ( + T8 355 ) ) ( <= ( + T8 434 )( + T4 202 ) ) )
(or ( <= ( + T4 246 )  ( + T8 434 ) ) ( <= ( + T8 480 )( + T4 209 ) ) )
(or ( <= ( + T4 321 )  ( + T8 480 ) ) ( <= ( + T8 544 )( + T4 246 ) ) )
(or ( <= ( + T4 73 ) T9 ) ( <= ( + T9 35 ) T4 ) )
(or ( <= ( + T4 110 )  ( + T9 35 ) ) ( <= ( + T9 126 )( + T4 73 ) ) )
(or ( <= ( + T4 133 )  ( + T9 126 ) ) ( <= ( + T9 175 )( + T4 110 ) ) )
(or ( <= ( + T4 176 )  ( + T9 175 ) ) ( <= ( + T9 177 )( + T4 133 ) ) )
(or ( <= ( + T4 202 )  ( + T9 177 ) ) ( <= ( + T9 276 )( + T4 176 ) ) )
(or ( <= ( + T4 209 )  ( + T9 276 ) ) ( <= ( + T9 296 )( + T4 202 ) ) )
(or ( <= ( + T4 246 )  ( + T9 296 ) ) ( <= ( + T9 370 )( + T4 209 ) ) )
(or ( <= ( + T4 321 )  ( + T9 370 ) ) ( <= ( + T9 417 )( + T4 246 ) ) )
(or ( <= ( + T4 73 ) T10 ) ( <= ( + T10 60 ) T4 ) )
(or ( <= ( + T4 110 )  ( + T10 60 ) ) ( <= ( + T10 149 )( + T4 73 ) ) )
(or ( <= ( + T4 133 )  ( + T10 149 ) ) ( <= ( + T10 174 )( + T4 110 ) ) )
(or ( <= ( + T4 176 )  ( + T10 174 ) ) ( <= ( + T10 198 )( + T4 133 ) ) )
(or ( <= ( + T4 202 )  ( + T10 198 ) ) ( <= ( + T10 212 )( + T4 176 ) ) )
(or ( <= ( + T4 209 )  ( + T10 212 ) ) ( <= ( + T10 295 )( + T4 202 ) ) )
(or ( <= ( + T4 246 )  ( + T10 295 ) ) ( <= ( + T10 340 )( + T4 209 ) ) )
(or ( <= ( + T4 321 )  ( + T10 340 ) ) ( <= ( + T10 436 )( + T4 246 ) ) )
(or ( <= ( + T5 59 ) T6 ) ( <= ( + T6 97 ) T5 ) )
(or ( <= ( + T5 64 )  ( + T6 97 ) ) ( <= ( + T6 137 )( + T5 59 ) ) )
(or ( <= ( + T5 110 )  ( + T6 137 ) ) ( <= ( + T6 201 )( + T5 64 ) ) )
(or ( <= ( + T5 196 )  ( + T6 201 ) ) ( <= ( + T6 280 )( + T5 110 ) ) )
(or ( <= ( + T5 264 )  ( + T6 280 ) ) ( <= ( + T6 345 )( + T5 196 ) ) )
(or ( <= ( + T5 273 )  ( + T6 345 ) ) ( <= ( + T6 371 )( + T5 264 ) ) )
(or ( <= ( + T5 345 )  ( + T6 371 ) ) ( <= ( + T6 430 )( + T5 273 ) ) )
(or ( <= ( + T5 417 )  ( + T6 430 ) ) ( <= ( + T6 500 )( + T5 345 ) ) )
(or ( <= ( + T5 59 ) T7 ) ( <= ( + T7 83 ) T5 ) )
(or ( <= ( + T5 64 )  ( + T7 83 ) ) ( <= ( + T7 102 )( + T5 59 ) ) )
(or ( <= ( + T5 110 )  ( + T7 102 ) ) ( <= ( + T7 124 )( + T5 64 ) ) )
(or ( <= ( + T5 196 )  ( + T7 124 ) ) ( <= ( + T7 218 )( + T5 110 ) ) )
(or ( <= ( + T5 264 )  ( + T7 218 ) ) ( <= ( + T7 294 )( + T5 196 ) ) )
(or ( <= ( + T5 273 )  ( + T7 294 ) ) ( <= ( + T7 300 )( + T5 264 ) ) )
(or ( <= ( + T5 345 )  ( + T7 300 ) ) ( <= ( + T7 374 )( + T5 273 ) ) )
(or ( <= ( + T5 417 )  ( + T7 374 ) ) ( <= ( + T7 423 )( + T5 345 ) ) )
(or ( <= ( + T5 59 ) T8 ) ( <= ( + T8 94 ) T5 ) )
(or ( <= ( + T5 64 )  ( + T8 94 ) ) ( <= ( + T8 190 )( + T5 59 ) ) )
(or ( <= ( + T5 110 )  ( + T8 190 ) ) ( <= ( + T8 281 )( + T5 64 ) ) )
(or ( <= ( + T5 196 )  ( + T8 281 ) ) ( <= ( + T8 301 )( + T5 110 ) ) )
(or ( <= ( + T5 264 )  ( + T8 301 ) ) ( <= ( + T8 355 )( + T5 196 ) ) )
(or ( <= ( + T5 273 )  ( + T8 355 ) ) ( <= ( + T8 434 )( + T5 264 ) ) )
(or ( <= ( + T5 345 )  ( + T8 434 ) ) ( <= ( + T8 480 )( + T5 273 ) ) )
(or ( <= ( + T5 417 )  ( + T8 480 ) ) ( <= ( + T8 544 )( + T5 345 ) ) )
(or ( <= ( + T5 59 ) T9 ) ( <= ( + T9 35 ) T5 ) )
(or ( <= ( + T5 64 )  ( + T9 35 ) ) ( <= ( + T9 126 )( + T5 59 ) ) )
(or ( <= ( + T5 110 )  ( + T9 126 ) ) ( <= ( + T9 175 )( + T5 64 ) ) )
(or ( <= ( + T5 196 )  ( + T9 175 ) ) ( <= ( + T9 177 )( + T5 110 ) ) )
(or ( <= ( + T5 264 )  ( + T9 177 ) ) ( <= ( + T9 276 )( + T5 196 ) ) )
(or ( <= ( + T5 273 )  ( + T9 276 ) ) ( <= ( + T9 296 )( + T5 264 ) ) )
(or ( <= ( + T5 345 )  ( + T9 296 ) ) ( <= ( + T9 370 )( + T5 273 ) ) )
(or ( <= ( + T5 417 )  ( + T9 370 ) ) ( <= ( + T9 417 )( + T5 345 ) ) )
(or ( <= ( + T5 59 ) T10 ) ( <= ( + T10 60 ) T5 ) )
(or ( <= ( + T5 64 )  ( + T10 60 ) ) ( <= ( + T10 149 )( + T5 59 ) ) )
(or ( <= ( + T5 110 )  ( + T10 149 ) ) ( <= ( + T10 174 )( + T5 64 ) ) )
(or ( <= ( + T5 196 )  ( + T10 174 ) ) ( <= ( + T10 198 )( + T5 110 ) ) )
(or ( <= ( + T5 264 )  ( + T10 198 ) ) ( <= ( + T10 212 )( + T5 196 ) ) )
(or ( <= ( + T5 273 )  ( + T10 212 ) ) ( <= ( + T10 295 )( + T5 264 ) ) )
(or ( <= ( + T5 345 )  ( + T10 295 ) ) ( <= ( + T10 340 )( + T5 273 ) ) )
(or ( <= ( + T5 417 )  ( + T10 340 ) ) ( <= ( + T10 436 )( + T5 345 ) ) )
(or ( <= ( + T6 97 ) T7 ) ( <= ( + T7 83 ) T6 ) )
(or ( <= ( + T6 137 )  ( + T7 83 ) ) ( <= ( + T7 102 )( + T6 97 ) ) )
(or ( <= ( + T6 201 )  ( + T7 102 ) ) ( <= ( + T7 124 )( + T6 137 ) ) )
(or ( <= ( + T6 280 )  ( + T7 124 ) ) ( <= ( + T7 218 )( + T6 201 ) ) )
(or ( <= ( + T6 345 )  ( + T7 218 ) ) ( <= ( + T7 294 )( + T6 280 ) ) )
(or ( <= ( + T6 371 )  ( + T7 294 ) ) ( <= ( + T7 300 )( + T6 345 ) ) )
(or ( <= ( + T6 430 )  ( + T7 300 ) ) ( <= ( + T7 374 )( + T6 371 ) ) )
(or ( <= ( + T6 500 )  ( + T7 374 ) ) ( <= ( + T7 423 )( + T6 430 ) ) )
(or ( <= ( + T6 97 ) T8 ) ( <= ( + T8 94 ) T6 ) )
(or ( <= ( + T6 137 )  ( + T8 94 ) ) ( <= ( + T8 190 )( + T6 97 ) ) )
(or ( <= ( + T6 201 )  ( + T8 190 ) ) ( <= ( + T8 281 )( + T6 137 ) ) )
(or ( <= ( + T6 280 )  ( + T8 281 ) ) ( <= ( + T8 301 )( + T6 201 ) ) )
(or ( <= ( + T6 345 )  ( + T8 301 ) ) ( <= ( + T8 355 )( + T6 280 ) ) )
(or ( <= ( + T6 371 )  ( + T8 355 ) ) ( <= ( + T8 434 )( + T6 345 ) ) )
(or ( <= ( + T6 430 )  ( + T8 434 ) ) ( <= ( + T8 480 )( + T6 371 ) ) )
(or ( <= ( + T6 500 )  ( + T8 480 ) ) ( <= ( + T8 544 )( + T6 430 ) ) )
(or ( <= ( + T6 97 ) T9 ) ( <= ( + T9 35 ) T6 ) )
(or ( <= ( + T6 137 )  ( + T9 35 ) ) ( <= ( + T9 126 )( + T6 97 ) ) )
(or ( <= ( + T6 201 )  ( + T9 126 ) ) ( <= ( + T9 175 )( + T6 137 ) ) )
(or ( <= ( + T6 280 )  ( + T9 175 ) ) ( <= ( + T9 177 )( + T6 201 ) ) )
(or ( <= ( + T6 345 )  ( + T9 177 ) ) ( <= ( + T9 276 )( + T6 280 ) ) )
(or ( <= ( + T6 371 )  ( + T9 276 ) ) ( <= ( + T9 296 )( + T6 345 ) ) )
(or ( <= ( + T6 430 )  ( + T9 296 ) ) ( <= ( + T9 370 )( + T6 371 ) ) )
(or ( <= ( + T6 500 )  ( + T9 370 ) ) ( <= ( + T9 417 )( + T6 430 ) ) )
(or ( <= ( + T6 97 ) T10 ) ( <= ( + T10 60 ) T6 ) )
(or ( <= ( + T6 137 )  ( + T10 60 ) ) ( <= ( + T10 149 )( + T6 97 ) ) )
(or ( <= ( + T6 201 )  ( + T10 149 ) ) ( <= ( + T10 174 )( + T6 137 ) ) )
(or ( <= ( + T6 280 )  ( + T10 174 ) ) ( <= ( + T10 198 )( + T6 201 ) ) )
(or ( <= ( + T6 345 )  ( + T10 198 ) ) ( <= ( + T10 212 )( + T6 280 ) ) )
(or ( <= ( + T6 371 )  ( + T10 212 ) ) ( <= ( + T10 295 )( + T6 345 ) ) )
(or ( <= ( + T6 430 )  ( + T10 295 ) ) ( <= ( + T10 340 )( + T6 371 ) ) )
(or ( <= ( + T6 500 )  ( + T10 340 ) ) ( <= ( + T10 436 )( + T6 430 ) ) )
(or ( <= ( + T7 83 ) T8 ) ( <= ( + T8 94 ) T7 ) )
(or ( <= ( + T7 102 )  ( + T8 94 ) ) ( <= ( + T8 190 )( + T7 83 ) ) )
(or ( <= ( + T7 124 )  ( + T8 190 ) ) ( <= ( + T8 281 )( + T7 102 ) ) )
(or ( <= ( + T7 218 )  ( + T8 281 ) ) ( <= ( + T8 301 )( + T7 124 ) ) )
(or ( <= ( + T7 294 )  ( + T8 301 ) ) ( <= ( + T8 355 )( + T7 218 ) ) )
(or ( <= ( + T7 300 )  ( + T8 355 ) ) ( <= ( + T8 434 )( + T7 294 ) ) )
(or ( <= ( + T7 374 )  ( + T8 434 ) ) ( <= ( + T8 480 )( + T7 300 ) ) )
(or ( <= ( + T7 423 )  ( + T8 480 ) ) ( <= ( + T8 544 )( + T7 374 ) ) )
(or ( <= ( + T7 83 ) T9 ) ( <= ( + T9 35 ) T7 ) )
(or ( <= ( + T7 102 )  ( + T9 35 ) ) ( <= ( + T9 126 )( + T7 83 ) ) )
(or ( <= ( + T7 124 )  ( + T9 126 ) ) ( <= ( + T9 175 )( + T7 102 ) ) )
(or ( <= ( + T7 218 )  ( + T9 175 ) ) ( <= ( + T9 177 )( + T7 124 ) ) )
(or ( <= ( + T7 294 )  ( + T9 177 ) ) ( <= ( + T9 276 )( + T7 218 ) ) )
(or ( <= ( + T7 300 )  ( + T9 276 ) ) ( <= ( + T9 296 )( + T7 294 ) ) )
(or ( <= ( + T7 374 )  ( + T9 296 ) ) ( <= ( + T9 370 )( + T7 300 ) ) )
(or ( <= ( + T7 423 )  ( + T9 370 ) ) ( <= ( + T9 417 )( + T7 374 ) ) )
(or ( <= ( + T7 83 ) T10 ) ( <= ( + T10 60 ) T7 ) )
(or ( <= ( + T7 102 )  ( + T10 60 ) ) ( <= ( + T10 149 )( + T7 83 ) ) )
(or ( <= ( + T7 124 )  ( + T10 149 ) ) ( <= ( + T10 174 )( + T7 102 ) ) )
(or ( <= ( + T7 218 )  ( + T10 174 ) ) ( <= ( + T10 198 )( + T7 124 ) ) )
(or ( <= ( + T7 294 )  ( + T10 198 ) ) ( <= ( + T10 212 )( + T7 218 ) ) )
(or ( <= ( + T7 300 )  ( + T10 212 ) ) ( <= ( + T10 295 )( + T7 294 ) ) )
(or ( <= ( + T7 374 )  ( + T10 295 ) ) ( <= ( + T10 340 )( + T7 300 ) ) )
(or ( <= ( + T7 423 )  ( + T10 340 ) ) ( <= ( + T10 436 )( + T7 374 ) ) )
(or ( <= ( + T8 94 ) T9 ) ( <= ( + T9 35 ) T8 ) )
(or ( <= ( + T8 190 )  ( + T9 35 ) ) ( <= ( + T9 126 )( + T8 94 ) ) )
(or ( <= ( + T8 281 )  ( + T9 126 ) ) ( <= ( + T9 175 )( + T8 190 ) ) )
(or ( <= ( + T8 301 )  ( + T9 175 ) ) ( <= ( + T9 177 )( + T8 281 ) ) )
(or ( <= ( + T8 355 )  ( + T9 177 ) ) ( <= ( + T9 276 )( + T8 301 ) ) )
(or ( <= ( + T8 434 )  ( + T9 276 ) ) ( <= ( + T9 296 )( + T8 355 ) ) )
(or ( <= ( + T8 480 )  ( + T9 296 ) ) ( <= ( + T9 370 )( + T8 434 ) ) )
(or ( <= ( + T8 544 )  ( + T9 370 ) ) ( <= ( + T9 417 )( + T8 480 ) ) )
(or ( <= ( + T8 94 ) T10 ) ( <= ( + T10 60 ) T8 ) )
(or ( <= ( + T8 190 )  ( + T10 60 ) ) ( <= ( + T10 149 )( + T8 94 ) ) )
(or ( <= ( + T8 281 )  ( + T10 149 ) ) ( <= ( + T10 174 )( + T8 190 ) ) )
(or ( <= ( + T8 301 )  ( + T10 174 ) ) ( <= ( + T10 198 )( + T8 281 ) ) )
(or ( <= ( + T8 355 )  ( + T10 198 ) ) ( <= ( + T10 212 )( + T8 301 ) ) )
(or ( <= ( + T8 434 )  ( + T10 212 ) ) ( <= ( + T10 295 )( + T8 355 ) ) )
(or ( <= ( + T8 480 )  ( + T10 295 ) ) ( <= ( + T10 340 )( + T8 434 ) ) )
(or ( <= ( + T8 544 )  ( + T10 340 ) ) ( <= ( + T10 436 )( + T8 480 ) ) )
(or ( <= ( + T9 35 ) T10 ) ( <= ( + T10 60 ) T9 ) )
(or ( <= ( + T9 126 )  ( + T10 60 ) ) ( <= ( + T10 149 )( + T9 35 ) ) )
(or ( <= ( + T9 175 )  ( + T10 149 ) ) ( <= ( + T10 174 )( + T9 126 ) ) )
(or ( <= ( + T9 177 )  ( + T10 174 ) ) ( <= ( + T10 198 )( + T9 175 ) ) )
(or ( <= ( + T9 276 )  ( + T10 198 ) ) ( <= ( + T10 212 )( + T9 177 ) ) )
(or ( <= ( + T9 296 )  ( + T10 212 ) ) ( <= ( + T10 295 )( + T9 276 ) ) )
(or ( <= ( + T9 370 )  ( + T10 295 ) ) ( <= ( + T10 340 )( + T9 296 ) ) )
(or ( <= ( + T9 417 )  ( + T10 340 ) ) ( <= ( + T10 436 )( + T9 370 ) ) )
( <= ( + T1 325 ) Z)
( <= ( + T2 347 ) Z)
( <= ( + T3 357 ) Z)
( <= ( + T4 321 ) Z)
( <= ( + T5 417 ) Z)
( <= ( + T6 500 ) Z)
( <= ( + T7 423 ) Z)
( <= ( + T8 544 ) Z)
( <= ( + T9 417 ) Z)
( <= ( + T10 436 ) Z)
( >= T1 0 )
( >= T2 0 )
( >= T3 0 )
( >= T4 0 )
( >= T5 0 )
( >= T6 0 )
( >= T7 0 )
( >= T8 0 )
( >= T9 0 )
( >= T10 0 )
) )
(minimize Z)
(check-sat)